Set parameter Username
Set parameter LogFile to value "gurobi.log"
Academic license - for non-commercial use only - expires 2024-05-02
Using license file /Users/sissi/gurobi.lic

Gurobi Optimizer version 10.0.1 build v10.0.1rc0 (mac64[arm])
Copyright (c) 2023, Gurobi Optimization, LLC

Read OPB format model from file pbo/p_pbo_0_872.opb
Reading time = 0.01 seconds
(null): 2005 rows, 1057 columns, 5973 nonzeros

CPU model: Apple M2
Thread count: 8 physical cores, 8 logical processors, using up to 8 threads

Optimize a model with 2005 rows, 1057 columns and 5973 nonzeros
Model fingerprint: 0x4364a25b
Variable types: 0 continuous, 1057 integer (1057 binary)
Coefficient statistics:
  Matrix range     [1e+00, 1e+00]
  Objective range  [1e+00, 4e+00]
  Bounds range     [1e+00, 1e+00]
  RHS range        [1e+00, 1e+00]
Found heuristic solution: objective -358.0000000
Presolve removed 1089 rows and 555 columns
Presolve time: 0.00s
Presolved: 916 rows, 502 columns, 2748 nonzeros
Variable types: 0 continuous, 502 integer (502 binary)

Root relaxation: objective -5.860000e+02, 123 iterations, 0.00 seconds (0.00 work units)

    Nodes    |    Current Node    |     Objective Bounds      |     Work
 Expl Unexpl |  Obj  Depth IntInf | Incumbent    BestBd   Gap | It/Node Time

     0     0 -586.00000    0   44 -358.00000 -586.00000  63.7%     -    0s
     0     0 -420.93599    0  485 -358.00000 -420.93599  17.6%     -    0s
     0     0 -399.47974    0  496 -358.00000 -399.47974  11.6%     -    0s
     0     0 -398.31186    0  496 -358.00000 -398.31186  11.3%     -    0s
     0     0 -398.03931    0  497 -358.00000 -398.03931  11.2%     -    0s
     0     0 -397.93505    0  497 -358.00000 -397.93505  11.2%     -    0s
H    0     0                    -378.0000000 -397.93505  5.27%     -    0s
H    0     0                    -395.0000000 -395.00000  0.00%     -    1s
     0     0          -    0      -395.00000 -395.00000  0.00%     -    1s

Cutting planes:
  MIR: 65
  Zero half: 1
  RLT: 317

Explored 1 nodes (3795 simplex iterations) in 1.06 seconds (0.57 work units)
Thread count was 8 (of 8 available processors)

Solution count 3: -395 -378 -358 
No other solutions better than -395

Optimal solution found (tolerance 1.00e-04)
Best objective -3.950000000000e+02, best bound -3.950000000000e+02, gap 0.0000%

Wrote result file 'solution/p_0_872.sol'

